n_res = 4;
rc = [ 53, 63, 43, 53 ];
n_tasks = 90;
d = [ 3, 7, 1, 1, 9, 10, 4, 8, 9, 9, 2, 6, 3, 6, 9, 9, 2, 7, 1, 3, 3, 1, 2, 9, 9, 6, 5, 10, 10, 9, 1, 5, 2, 9, 1, 6, 1, 2, 5, 6, 4, 2, 6, 8, 6, 9, 1, 6, 1, 3, 5, 7, 4, 3, 1, 2, 10, 2, 4, 1, 7, 8, 6, 7, 7, 1, 5, 10, 7, 10, 7, 2, 1, 1, 7, 7, 8, 10, 1, 8, 3, 1, 3, 5, 4, 8, 2, 8, 6, 4 ];
rr = [| 6, 2, 1, 2, 3, 10, 9, 6, 10, 2, 4, 10, 9, 5, 2, 4, 6, 4, 9, 1, 9, 4, 7, 8, 2, 10, 10, 2, 6, 1, 4, 5, 4, 6, 9, 7, 2, 2, 8, 7, 1, 10, 1, 9, 2, 3, 10, 8, 8, 10, 4, 8, 7, 1, 1, 8, 3, 8, 1, 10, 6, 8, 3, 10, 2, 8, 1, 4, 1, 9, 5, 3, 4, 3, 8, 3, 3, 5, 9, 8, 9, 2, 4, 5, 2, 5, 6, 7, 6, 4
      | 1, 7, 5, 3, 3, 8, 7, 9, 7, 3, 1, 3, 7, 2, 5, 4, 7, 7, 6, 3, 2, 7, 3, 10, 2, 10, 9, 8, 2, 6, 6, 7, 1, 8, 4, 8, 10, 3, 5, 10, 7, 7, 3, 10, 2, 6, 5, 6, 10, 10, 10, 3, 2, 3, 2, 9, 4, 4, 9, 10, 7, 5, 7, 9, 6, 3, 6, 6, 6, 5, 3, 10, 3, 10, 4, 5, 9, 9, 2, 6, 4, 6, 1, 7, 6, 1, 3, 2, 2, 1
      | 2, 9, 2, 4, 5, 2, 5, 4, 7, 7, 7, 9, 5, 9, 2, 9, 2, 3, 3, 6, 5, 9, 2, 3, 7, 9, 4, 4, 8, 1, 5, 2, 5, 3, 2, 5, 10, 6, 3, 2, 9, 8, 7, 3, 5, 6, 9, 1, 3, 2, 1, 7, 7, 2, 6, 9, 8, 7, 7, 5, 8, 3, 6, 9, 1, 5, 9, 10, 10, 5, 6, 4, 4, 4, 5, 7, 6, 6, 5, 7, 6, 2, 10, 3, 4, 10, 9, 1, 8, 4
      | 2, 5, 1, 1, 7, 5, 1, 1, 5, 3, 5, 9, 9, 5, 8, 3, 5, 8, 9, 7, 8, 9, 5, 7, 7, 8, 3, 9, 9, 2, 7, 9, 5, 7, 8, 10, 1, 6, 4, 1, 2, 10, 8, 7, 2, 10, 8, 6, 8, 2, 9, 4, 2, 4, 8, 9, 9, 10, 3, 6, 1, 3, 5, 9, 3, 8, 1, 9, 9, 10, 6, 2, 3, 10, 6, 1, 9, 8, 6, 2, 1, 9, 7, 6, 4, 9, 1, 2, 4, 3 |];
suc = [ { 5, 6, 15 },
       { 7, 8, 26 },
       { 4, 9, 11 },
       { 58, 61, 83 },
       { 12, 16, 43 },
       { 13, 27 },
       { 14, 19, 22 },
       { 28, 51, 58 },
       { 10, 39, 50 },
       { 15, 53 },
       { 27, 46, 52 },
       { 29, 40, 63 },
       { 45, 50, 69 },
       { 18, 59, 63 },
       { 47, 54, 75 },
       { 17, 30, 85 },
       { 37, 46, 49 },
       { 52, 54 },
       { 20, 44, 52 },
       { 21, 33, 66 },
       { 24, 30, 37 },
       { 23, 55, 78 },
       { 25, 31, 77 },
       { 29, 39, 87 },
       { 27, 48, 59 },
       { 32, 48, 56 },
       { 28, 44, 57 },
       { 36, 43, 62 },
       { 31, 46, 76 },
       { 36, 64, 88 },
       { 32, 62, 69 },
       { 74 },
       { 34, 35, 42 },
       { 38, 49, 71 },
       { 38, 40, 67 },
       { 45, 67 },
       { 41, 74 },
       { 39, 73, 81 },
       { 61 },
       { 41, 47, 53 },
       { 50, 55, 58 },
       { 45, 47, 85 },
       { 49, 56 },
       { 56, 73 },
       { 84 },
       { 60, 72, 80 },
       { 55, 83 },
       { 57, 61, 68 },
       { 67 },
       { 60, 71 },
       { 65, 74 },
       { 53, 64, 66 },
       { 78, 86 },
       { 70, 81 },
       { 64, 77, 80 },
       { 76 },
       { 60, 62, 66 },
       { 73, 77 },
       { 68 },
       { 82 },
       { 63 },
       { 75 },
       { 70, 88 },
       { 71 },
       { 78, 79 },
       { 72 },
       { 68 },
       { 69, 70 },
       { 72 },
       { 76, 89 },
       { 86 },
       { 75, 79, 82 },
       { 90 },
       { 80 },
       { 83 },
       { 79 },
       { 84 },
       { 81, 84 },
       { 86 },
       { 88 },
       { 82, 85 },
       { 90 },
       { 89 },
       { 87 },
       { 87 },
       { 90 },
       { 89 },
       {  },
       {  },
       {  } ];
